 Minimize
[ 1.0000000000000000 Z0 * Z1  ]
Subject to
c1: [ 1.0000000000000000 Z0 * Z5 -1.0000000000000000 Z4 * Z43  ] = 0.000000
c2: [ 1.0000000000000000 Z0 * Z7 -1.0000000000000000 Z6 * Z43  ] = 0.000000
c3: [ 1.0000000000000000 Z0 * Z9 -1.0000000000000000 Z8 * Z43  ] = 0.000000
c4: [ 1.0000000000000000 Z0 * Z11 -1.0000000000000000 Z10 * Z43  ] = 0.000000
c5: [ 1.0000000000000000 Z0 * Z12 -1.0000000000000000 Z6 * Z44  ] = 0.000000
c6: [ 1.0000000000000000 Z0 * Z13 -1.0000000000000000 Z8 * Z44  ] = 0.000000
c7: [ 1.0000000000000000 Z0 * Z14 -1.0000000000000000 Z10 * Z44  ] = 0.000000
c8: [ 1.0000000000000000 Z0 * Z15 -1.0000000000000000 Z8 * Z45  ] = 0.000000
c9: [ 1.0000000000000000 Z0 * Z16 -1.0000000000000000 Z10 * Z45  ] = 0.000000
c10: [ 1.0000000000000000 Z0 * Z17 -1.0000000000000000 Z10 * Z46  ] = 0.000000
c11: [ 1.0000000000000000 Z0 * Z18 -1.0000000000000000 Z6 * Z47  ] = 0.000000
c12: [ 1.0000000000000000 Z0 * Z19 -1.0000000000000000 Z8 * Z47  ] = 0.000000
c13: [ 1.0000000000000000 Z0 * Z20 -1.0000000000000000 Z10 * Z47  ] = 0.000000
c14: [ 1.0000000000000000 Z0 * Z21 -1.0000000000000000 Z8 * Z48  ] = 0.000000
c15: [ 1.0000000000000000 Z0 * Z22 -1.0000000000000000 Z10 * Z48  ] = 0.000000
c16: [ 1.0000000000000000 Z0 * Z23 -1.0000000000000000 Z10 * Z49  ] = 0.000000
c17: [ 1.0000000000000000 Z0 * Z24 -1.0000000000000000 Z8 * Z50  ] = 0.000000
c18: [ 1.0000000000000000 Z0 * Z25 -1.0000000000000000 Z10 * Z50  ] = 0.000000
c19: [ 1.0000000000000000 Z0 * Z26 -1.0000000000000000 Z10 * Z51  ] = 0.000000
c20: [ 1.0000000000000000 Z0 * Z27 -1.0000000000000000 Z10 * Z52  ] = 0.000000
c21: [ 1.0000000000000000 Z0 * Z2  + 1.0000000000000000 Z0 * Z3  + 1.0000000000000000 Z0 * Z4  + 1.0000000000000000 Z0 * Z6  + 1.0000000000000000 Z0 * Z8  + 1.0000000000000000 Z0 * Z10  ] = 4.000000
c22: [ 1.0000000000000000 Z0 * Z28 -1.0000000000000000 Z0 * Z29  ] <= 0.000000
c23: [ -1.0000000000000000 Z0 * Z29  + 1.0000000000000000 Z0 * Z30  ] <= 0.000000
c24: [ -1.0000000000000000 Z0 * Z29  + 1.0000000000000000 Z0 * Z31  ] <= 0.000000
c25: [ -1.0000000000000000 Z0 * Z29  + 1.0000000000000000 Z0 * Z32  ] <= 0.000000
c26: [ -1.0000000000000000 Z0 * Z29  + 1.0000000000000000 Z0 * Z33  ] <= 0.000000
c27: [ -1.0000000000000000 Z0 * Z29  + 1.0000000000000000 Z0 * Z34  ] <= 0.000000
c28: [ -1.0000000000000000 Z0 * Z29  + 1.0000000000000000 Z0 * Z35  ] <= 0.000000
c29: [ -1.0000000000000000 Z0 * Z29  + 1.0000000000000000 Z0 * Z36  ] <= 0.000000
c30: [ -1.0000000000000000 Z0 * Z29  + 1.0000000000000000 Z0 * Z37  ] <= 0.000000
c31: [ -1.0000000000000000 Z0 * Z29  + 1.0000000000000000 Z0 * Z38  ] <= 0.000000
c32: [ -1.0000000000000000 Z0 * Z29  + 1.0000000000000000 Z0 * Z39  ] <= 0.000000
c33: [ -1.0000000000000000 Z0 * Z29  + 1.0000000000000000 Z0 * Z40  ] <= 0.000000
c34: [ -1.0000000000000000 Z0 * Z29  + 1.0000000000000000 Z0 * Z41  ] <= 0.000000
c35: [ -1.0000000000000000 Z0 * Z29  + 1.0000000000000000 Z0 * Z42  ] <= 0.000000
c36: [ 1.0000000000000000 Z18 * Z53  + 1.0000000000000000 Z19 * Z55  + 1.0000000000000000 Z20 * Z56  + 1.0000000000000000 Z21 * Z57  + 1.0000000000000000 Z22 * Z58  + 1.0000000000000000 Z23 * Z59  + 1.0000000000000000 Z24 * Z60  + 1.0000000000000000 Z25 * Z61  + 1.0000000000000000 Z26 * Z62  + 1.0000000000000000 Z27 * Z63  ] = 1.000000
c37: [ 1.0000000000000000 Z12 * Z53  + 1.0000000000000000 Z13 * Z55  + 1.0000000000000000 Z14 * Z56  + 1.0000000000000000 Z15 * Z57  + 1.0000000000000000 Z16 * Z58  + 1.0000000000000000 Z17 * Z59  + 1.0000000000000000 Z24 * Z64  + 1.0000000000000000 Z25 * Z65  + 1.0000000000000000 Z26 * Z66  + 1.0000000000000000 Z27 * Z67  ] = 1.000000
c38: [ 1.0000000000000000 Z7 * Z53  + 1.0000000000000000 Z9 * Z55  + 1.0000000000000000 Z11 * Z56  + 1.0000000000000000 Z15 * Z60  + 1.0000000000000000 Z16 * Z61  + 1.0000000000000000 Z17 * Z62  + 1.0000000000000000 Z21 * Z64  + 1.0000000000000000 Z22 * Z65  + 1.0000000000000000 Z23 * Z66  + 1.0000000000000000 Z27 * Z54  ] = 1.000000
c39: [ 1.0000000000000000 Z5 * Z53  + 1.0000000000000000 Z9 * Z57  + 1.0000000000000000 Z11 * Z58  + 1.0000000000000000 Z13 * Z60  + 1.0000000000000000 Z14 * Z61  + 1.0000000000000000 Z17 * Z63  + 1.0000000000000000 Z19 * Z64  + 1.0000000000000000 Z20 * Z65  + 1.0000000000000000 Z23 * Z67  + 1.0000000000000000 Z26 * Z54  ] = 1.000000
c40: [ 1.0000000000000000 Z5 * Z55  + 1.0000000000000000 Z7 * Z57  + 1.0000000000000000 Z11 * Z59  + 1.0000000000000000 Z12 * Z60  + 1.0000000000000000 Z14 * Z62  + 1.0000000000000000 Z16 * Z63  + 1.0000000000000000 Z18 * Z64  + 1.0000000000000000 Z20 * Z66  + 1.0000000000000000 Z22 * Z67  + 1.0000000000000000 Z25 * Z54  ] = 1.000000
c41: [ 1.0000000000000000 Z5 * Z56  + 1.0000000000000000 Z7 * Z58  + 1.0000000000000000 Z9 * Z59  + 1.0000000000000000 Z12 * Z61  + 1.0000000000000000 Z13 * Z62  + 1.0000000000000000 Z15 * Z63  + 1.0000000000000000 Z18 * Z65  + 1.0000000000000000 Z19 * Z66  + 1.0000000000000000 Z21 * Z67  + 1.0000000000000000 Z24 * Z54  ] = 1.000000
c42: [ 1.0000000000000000 Z28 * Z34 -1.0000000000000000 Z30 * Z33  + 1.0000000000000000 Z31 * Z32  ] = 0.000000
c43: [ 1.0000000000000000 Z28 * Z37 -1.0000000000000000 Z30 * Z36  + 1.0000000000000000 Z31 * Z35  ] = 0.000000
c44: [ 1.0000000000000000 Z28 * Z41 -1.0000000000000000 Z30 * Z40  + 1.0000000000000000 Z31 * Z39  ] = 0.000000
c45: [ 1.0000000000000000 Z28 * Z38 -1.0000000000000000 Z32 * Z36  + 1.0000000000000000 Z33 * Z35  ] = 0.000000
c46: [ 1.0000000000000000 Z28 * Z42 -1.0000000000000000 Z32 * Z40  + 1.0000000000000000 Z33 * Z39  ] = 0.000000
c47: [ 1.0000000000000000 Z28 * Z29 -1.0000000000000000 Z35 * Z40  + 1.0000000000000000 Z36 * Z39  ] = 0.000000
c48: [ 1.0000000000000000 Z30 * Z38 -1.0000000000000000 Z32 * Z37  + 1.0000000000000000 Z34 * Z35  ] = 0.000000
c49: [ 1.0000000000000000 Z30 * Z42 -1.0000000000000000 Z32 * Z41  + 1.0000000000000000 Z34 * Z39  ] = 0.000000
c50: [ 1.0000000000000000 Z29 * Z30 -1.0000000000000000 Z35 * Z41  + 1.0000000000000000 Z37 * Z39  ] = 0.000000
c51: [ 1.0000000000000000 Z31 * Z38 -1.0000000000000000 Z33 * Z37  + 1.0000000000000000 Z34 * Z36  ] = 0.000000
c52: [ 1.0000000000000000 Z31 * Z42 -1.0000000000000000 Z33 * Z41  + 1.0000000000000000 Z34 * Z40  ] = 0.000000
c53: [ 1.0000000000000000 Z29 * Z31 -1.0000000000000000 Z36 * Z41  + 1.0000000000000000 Z37 * Z40  ] = 0.000000
c54: [ 1.0000000000000000 Z29 * Z32 -1.0000000000000000 Z35 * Z42  + 1.0000000000000000 Z38 * Z39  ] = 0.000000
c55: [ 1.0000000000000000 Z29 * Z33 -1.0000000000000000 Z36 * Z42  + 1.0000000000000000 Z38 * Z40  ] = 0.000000
c56: [ 1.0000000000000000 Z29 * Z34 -1.0000000000000000 Z37 * Z42  + 1.0000000000000000 Z38 * Z41  ] = 0.000000
c57: [ -1.0000000000000000 Z0 * Z1 -1.0000000000000000 Z0 * Z28  ] <= 0.000000
c58: [ -1.0000000000000000 Z0 * Z1  + 1.0000000000000000 Z0 * Z28  ] <= 0.000000
c59: [ -1.0000000000000000 Z0 * Z1 -1.0000000000000000 Z0 * Z30  ] <= 0.000000
c60: [ -1.0000000000000000 Z0 * Z1  + 1.0000000000000000 Z0 * Z30  ] <= 0.000000
c61: [ -1.0000000000000000 Z0 * Z1 -1.0000000000000000 Z0 * Z31  ] <= 0.000000
c62: [ -1.0000000000000000 Z0 * Z1  + 1.0000000000000000 Z0 * Z31  ] <= 0.000000
c63: [ -1.0000000000000000 Z0 * Z1 -1.0000000000000000 Z0 * Z32  ] <= 0.000000
c64: [ -1.0000000000000000 Z0 * Z1  + 1.0000000000000000 Z0 * Z32  ] <= 0.000000
c65: [ -1.0000000000000000 Z0 * Z1 -1.0000000000000000 Z0 * Z33  ] <= 0.000000
c66: [ -1.0000000000000000 Z0 * Z1  + 1.0000000000000000 Z0 * Z33  ] <= 0.000000
c67: [ -1.0000000000000000 Z0 * Z1 -1.0000000000000000 Z0 * Z34  ] <= 0.000000
c68: [ -1.0000000000000000 Z0 * Z1  + 1.0000000000000000 Z0 * Z34  ] <= 0.000000
c69: [ -1.0000000000000000 Z0 * Z1 -1.0000000000000000 Z0 * Z35  ] <= 0.000000
c70: [ -1.0000000000000000 Z0 * Z1  + 1.0000000000000000 Z0 * Z35  ] <= 0.000000
c71: [ -1.0000000000000000 Z0 * Z1 -1.0000000000000000 Z0 * Z36  ] <= 0.000000
c72: [ -1.0000000000000000 Z0 * Z1  + 1.0000000000000000 Z0 * Z36  ] <= 0.000000
c73: [ -1.0000000000000000 Z0 * Z1 -1.0000000000000000 Z0 * Z37  ] <= 0.000000
c74: [ -1.0000000000000000 Z0 * Z1  + 1.0000000000000000 Z0 * Z37  ] <= 0.000000
c75: [ -1.0000000000000000 Z0 * Z1 -1.0000000000000000 Z0 * Z38  ] <= 0.000000
c76: [ -1.0000000000000000 Z0 * Z1  + 1.0000000000000000 Z0 * Z38  ] <= 0.000000
c77: [ -1.0000000000000000 Z0 * Z1 -1.0000000000000000 Z0 * Z39  ] <= 0.000000
c78: [ -1.0000000000000000 Z0 * Z1  + 1.0000000000000000 Z0 * Z39  ] <= 0.000000
c79: [ -1.0000000000000000 Z0 * Z1 -1.0000000000000000 Z0 * Z40  ] <= 0.000000
c80: [ -1.0000000000000000 Z0 * Z1  + 1.0000000000000000 Z0 * Z40  ] <= 0.000000
c81: [ -1.0000000000000000 Z0 * Z1 -1.0000000000000000 Z0 * Z41  ] <= 0.000000
c82: [ -1.0000000000000000 Z0 * Z1  + 1.0000000000000000 Z0 * Z41  ] <= 0.000000
c83: [ -1.0000000000000000 Z0 * Z1 -1.0000000000000000 Z0 * Z42  ] <= 0.000000
c84: [ -1.0000000000000000 Z0 * Z1  + 1.0000000000000000 Z0 * Z42  ] <= 0.000000
c85: [ -1.0000000000000000 Z0 * Z1 -1.0000000000000000 Z0 * Z29  ] <= 0.000000
c86: [ -1.0000000000000000 Z0 * Z1  + 1.0000000000000000 Z0 * Z29  ] <= 0.000000
ac1: Z0 - 1 = 0
ac2: [ 1.0000000000000000 Z0 * Z43 -1.0000000000000000 Z2 * Z3  ] = 0
ac3: [ 1.0000000000000000 Z0 * Z44 -1.0000000000000000 Z2 * Z4  ] = 0
ac4: [ 1.0000000000000000 Z3 * Z44 -1.0000000000000000 Z4 * Z43  ] = 0
ac5: [ 1.0000000000000000 Z0 * Z45 -1.0000000000000000 Z2 * Z6  ] = 0
ac6: [ 1.0000000000000000 Z3 * Z45 -1.0000000000000000 Z6 * Z43  ] = 0
ac7: [ 1.0000000000000000 Z4 * Z45 -1.0000000000000000 Z6 * Z44  ] = 0
ac8: [ 1.0000000000000000 Z0 * Z46 -1.0000000000000000 Z2 * Z8  ] = 0
ac9: [ 1.0000000000000000 Z3 * Z46 -1.0000000000000000 Z8 * Z43  ] = 0
ac10: [ 1.0000000000000000 Z4 * Z46 -1.0000000000000000 Z8 * Z44  ] = 0
ac11: [ 1.0000000000000000 Z6 * Z46 -1.0000000000000000 Z8 * Z45  ] = 0
ac12: [ 1.0000000000000000 Z0 * Z47 -1.0000000000000000 Z3 * Z4  ] = 0
ac13: [ 1.0000000000000000 Z2 * Z47 -1.0000000000000000 Z3 * Z44  ] = 0
ac14: [ 1.0000000000000000 Z2 * Z47 -1.0000000000000000 Z4 * Z43  ] = 0
ac15: [ 1.0000000000000000 Z0 * Z48 -1.0000000000000000 Z3 * Z6  ] = 0
ac16: [ 1.0000000000000000 Z2 * Z48 -1.0000000000000000 Z3 * Z45  ] = 0
ac17: [ 1.0000000000000000 Z2 * Z48 -1.0000000000000000 Z6 * Z43  ] = 0
ac18: [ 1.0000000000000000 Z4 * Z48 -1.0000000000000000 Z6 * Z47  ] = 0
ac19: [ 1.0000000000000000 Z44 * Z48 -1.0000000000000000 Z45 * Z47  ] = 0
ac20: [ 1.0000000000000000 Z0 * Z49 -1.0000000000000000 Z3 * Z8  ] = 0
ac21: [ 1.0000000000000000 Z2 * Z49 -1.0000000000000000 Z3 * Z46  ] = 0
ac22: [ 1.0000000000000000 Z2 * Z49 -1.0000000000000000 Z8 * Z43  ] = 0
ac23: [ 1.0000000000000000 Z4 * Z49 -1.0000000000000000 Z8 * Z47  ] = 0
ac24: [ 1.0000000000000000 Z6 * Z49 -1.0000000000000000 Z8 * Z48  ] = 0
ac25: [ 1.0000000000000000 Z44 * Z49 -1.0000000000000000 Z46 * Z47  ] = 0
ac26: [ 1.0000000000000000 Z45 * Z49 -1.0000000000000000 Z46 * Z48  ] = 0
ac27: [ 1.0000000000000000 Z0 * Z50 -1.0000000000000000 Z4 * Z6  ] = 0
ac28: [ 1.0000000000000000 Z2 * Z50 -1.0000000000000000 Z4 * Z45  ] = 0
ac29: [ 1.0000000000000000 Z2 * Z50 -1.0000000000000000 Z6 * Z44  ] = 0
ac30: [ 1.0000000000000000 Z3 * Z50 -1.0000000000000000 Z4 * Z48  ] = 0
ac31: [ 1.0000000000000000 Z3 * Z50 -1.0000000000000000 Z6 * Z47  ] = 0
ac32: [ 1.0000000000000000 Z43 * Z50 -1.0000000000000000 Z44 * Z48  ] = 0
ac33: [ 1.0000000000000000 Z43 * Z50 -1.0000000000000000 Z45 * Z47  ] = 0
ac34: [ 1.0000000000000000 Z0 * Z51 -1.0000000000000000 Z4 * Z8  ] = 0
ac35: [ 1.0000000000000000 Z2 * Z51 -1.0000000000000000 Z4 * Z46  ] = 0
ac36: [ 1.0000000000000000 Z2 * Z51 -1.0000000000000000 Z8 * Z44  ] = 0
ac37: [ 1.0000000000000000 Z3 * Z51 -1.0000000000000000 Z4 * Z49  ] = 0
ac38: [ 1.0000000000000000 Z3 * Z51 -1.0000000000000000 Z8 * Z47  ] = 0
ac39: [ 1.0000000000000000 Z6 * Z51 -1.0000000000000000 Z8 * Z50  ] = 0
ac40: [ 1.0000000000000000 Z43 * Z51 -1.0000000000000000 Z44 * Z49  ] = 0
ac41: [ 1.0000000000000000 Z43 * Z51 -1.0000000000000000 Z46 * Z47  ] = 0
ac42: [ 1.0000000000000000 Z45 * Z51 -1.0000000000000000 Z46 * Z50  ] = 0
ac43: [ 1.0000000000000000 Z48 * Z51 -1.0000000000000000 Z49 * Z50  ] = 0
ac44: [ 1.0000000000000000 Z0 * Z52 -1.0000000000000000 Z6 * Z8  ] = 0
ac45: [ 1.0000000000000000 Z2 * Z52 -1.0000000000000000 Z6 * Z46  ] = 0
ac46: [ 1.0000000000000000 Z2 * Z52 -1.0000000000000000 Z8 * Z45  ] = 0
ac47: [ 1.0000000000000000 Z3 * Z52 -1.0000000000000000 Z6 * Z49  ] = 0
ac48: [ 1.0000000000000000 Z3 * Z52 -1.0000000000000000 Z8 * Z48  ] = 0
ac49: [ 1.0000000000000000 Z4 * Z52 -1.0000000000000000 Z6 * Z51  ] = 0
ac50: [ 1.0000000000000000 Z4 * Z52 -1.0000000000000000 Z8 * Z50  ] = 0
ac51: [ 1.0000000000000000 Z43 * Z52 -1.0000000000000000 Z45 * Z49  ] = 0
ac52: [ 1.0000000000000000 Z43 * Z52 -1.0000000000000000 Z46 * Z48  ] = 0
ac53: [ 1.0000000000000000 Z44 * Z52 -1.0000000000000000 Z45 * Z51  ] = 0
ac54: [ 1.0000000000000000 Z44 * Z52 -1.0000000000000000 Z46 * Z50  ] = 0
ac55: [ 1.0000000000000000 Z47 * Z52 -1.0000000000000000 Z48 * Z51  ] = 0
ac56: [ 1.0000000000000000 Z47 * Z52 -1.0000000000000000 Z49 * Z50  ] = 0
ac57: [ 1.0000000000000000 Z0 * Z53 -1.0000000000000000 Z28 * Z28  ] = 0
ac58: [ 1.0000000000000000 Z0 * Z55 -1.0000000000000000 Z30 * Z30  ] = 0
ac59: [ 1.0000000000000000 Z0 * Z56 -1.0000000000000000 Z31 * Z31  ] = 0
ac60: [ 1.0000000000000000 Z0 * Z57 -1.0000000000000000 Z32 * Z32  ] = 0
ac61: [ 1.0000000000000000 Z0 * Z58 -1.0000000000000000 Z33 * Z33  ] = 0
ac62: [ 1.0000000000000000 Z0 * Z59 -1.0000000000000000 Z34 * Z34  ] = 0
ac63: [ 1.0000000000000000 Z0 * Z60 -1.0000000000000000 Z35 * Z35  ] = 0
ac64: [ 1.0000000000000000 Z0 * Z61 -1.0000000000000000 Z36 * Z36  ] = 0
ac65: [ 1.0000000000000000 Z0 * Z62 -1.0000000000000000 Z37 * Z37  ] = 0
ac66: [ 1.0000000000000000 Z0 * Z63 -1.0000000000000000 Z38 * Z38  ] = 0
ac67: [ 1.0000000000000000 Z0 * Z64 -1.0000000000000000 Z39 * Z39  ] = 0
ac68: [ 1.0000000000000000 Z0 * Z65 -1.0000000000000000 Z40 * Z40  ] = 0
ac69: [ 1.0000000000000000 Z0 * Z66 -1.0000000000000000 Z41 * Z41  ] = 0
ac70: [ 1.0000000000000000 Z0 * Z67 -1.0000000000000000 Z42 * Z42  ] = 0
ac71: [ 1.0000000000000000 Z0 * Z54 -1.0000000000000000 Z29 * Z29  ] = 0
Bounds
1 <= Z0 <= 1
0.0000000000000000 <= Z1 <= 1.0000000000000000
0.0000000000000000 <= Z2 <= 1.0000000000000000
0.0000000000000000 <= Z3 <= 1.0000000000000000
0.0000000000000000 <= Z4 <= 1.0000000000000000
0.0000000000000000 <= Z5 <= 1.0000000000000000
0.0000000000000000 <= Z6 <= 1.0000000000000000
0.0000000000000000 <= Z7 <= 1.0000000000000000
0.0000000000000000 <= Z8 <= 1.0000000000000000
0.0000000000000000 <= Z9 <= 1.0000000000000000
0.0000000000000000 <= Z10 <= 1.0000000000000000
0.0000000000000000 <= Z11 <= 1.0000000000000000
0.0000000000000000 <= Z12 <= 1.0000000000000000
0.0000000000000000 <= Z13 <= 1.0000000000000000
0.0000000000000000 <= Z14 <= 1.0000000000000000
0.0000000000000000 <= Z15 <= 1.0000000000000000
0.0000000000000000 <= Z16 <= 1.0000000000000000
0.0000000000000000 <= Z17 <= 1.0000000000000000
0.0000000000000000 <= Z18 <= 1.0000000000000000
0.0000000000000000 <= Z19 <= 1.0000000000000000
0.0000000000000000 <= Z20 <= 1.0000000000000000
0.0000000000000000 <= Z21 <= 1.0000000000000000
0.0000000000000000 <= Z22 <= 1.0000000000000000
0.0000000000000000 <= Z23 <= 1.0000000000000000
0.0000000000000000 <= Z24 <= 1.0000000000000000
0.0000000000000000 <= Z25 <= 1.0000000000000000
0.0000000000000000 <= Z26 <= 1.0000000000000000
0.0000000000000000 <= Z27 <= 1.0000000000000000
-1.0000000000000000 <= Z28 <= 1.0000000000000000
0.0000000000000000 <= Z29 <= 1.0000000000000000
-1.0000000000000000 <= Z30 <= 1.0000000000000000
-1.0000000000000000 <= Z31 <= 1.0000000000000000
-1.0000000000000000 <= Z32 <= 1.0000000000000000
-1.0000000000000000 <= Z33 <= 1.0000000000000000
-1.0000000000000000 <= Z34 <= 1.0000000000000000
-1.0000000000000000 <= Z35 <= 1.0000000000000000
-1.0000000000000000 <= Z36 <= 1.0000000000000000
-1.0000000000000000 <= Z37 <= 1.0000000000000000
-1.0000000000000000 <= Z38 <= 1.0000000000000000
-1.0000000000000000 <= Z39 <= 1.0000000000000000
-1.0000000000000000 <= Z40 <= 1.0000000000000000
-1.0000000000000000 <= Z41 <= 1.0000000000000000
-1.0000000000000000 <= Z42 <= 1.0000000000000000
0.0000000000000000 <= Z43 <= 1.0000000000000000
0.0000000000000000 <= Z44 <= 1.0000000000000000
0.0000000000000000 <= Z45 <= 1.0000000000000000
0.0000000000000000 <= Z46 <= 1.0000000000000000
0.0000000000000000 <= Z47 <= 1.0000000000000000
0.0000000000000000 <= Z48 <= 1.0000000000000000
0.0000000000000000 <= Z49 <= 1.0000000000000000
0.0000000000000000 <= Z50 <= 1.0000000000000000
0.0000000000000000 <= Z51 <= 1.0000000000000000
0.0000000000000000 <= Z52 <= 1.0000000000000000
-1.0000000000000000 <= Z53 <= 1.0000000000000000
0.0000000000000000 <= Z54 <= 1.0000000000000000
-1.0000000000000000 <= Z55 <= 1.0000000000000000
-1.0000000000000000 <= Z56 <= 1.0000000000000000
-1.0000000000000000 <= Z57 <= 1.0000000000000000
-1.0000000000000000 <= Z58 <= 1.0000000000000000
-1.0000000000000000 <= Z59 <= 1.0000000000000000
-1.0000000000000000 <= Z60 <= 1.0000000000000000
-1.0000000000000000 <= Z61 <= 1.0000000000000000
-1.0000000000000000 <= Z62 <= 1.0000000000000000
-1.0000000000000000 <= Z63 <= 1.0000000000000000
-1.0000000000000000 <= Z64 <= 1.0000000000000000
-1.0000000000000000 <= Z65 <= 1.0000000000000000
-1.0000000000000000 <= Z66 <= 1.0000000000000000
-1.0000000000000000 <= Z67 <= 1.0000000000000000
End